
Gurobi 9.1.2 (linux64, gurobi_cl) logging started Fri Jul 30 13:54:35 2021

Using license file /opt/gurobi/gurobi.lic
Set parameter TimeLimit to value 600
Set parameter Heuristics to value 0
Set parameter LogFile to value 912-Heuristics0-glass4-1.log
Set parameter Seed to value 1

Gurobi Optimizer version 9.1.2 build v9.1.2rc0 (linux64)
Copyright (c) 2021, Gurobi Optimization, LLC

Read MPS format model from file /nfs/models/mip/glass4.mps.bz2
Reading time = 0.00 seconds
glass4: 396 rows, 322 columns, 1815 nonzeros
Thread count: 4 physical cores, 8 logical processors, using up to 8 threads
Optimize a model with 396 rows, 322 columns and 1815 nonzeros
Model fingerprint: 0x0a9d9037
Variable types: 20 continuous, 302 integer (0 binary)
Coefficient statistics:
  Matrix range     [1e+00, 8e+06]
  Objective range  [1e+00, 1e+06]
  Bounds range     [1e+00, 8e+02]
  RHS range        [1e+00, 8e+06]
Presolve removed 6 rows and 6 columns
Presolve time: 0.00s
Presolved: 390 rows, 316 columns, 1803 nonzeros
Variable types: 19 continuous, 297 integer (297 binary)

Root relaxation: objective 8.000024e+08, 72 iterations, 0.00 seconds

    Nodes    |    Current Node    |     Objective Bounds      |     Work
 Expl Unexpl |  Obj  Depth IntInf | Incumbent    BestBd   Gap | It/Node Time

     0     0 8.0000e+08    0   72          - 8.0000e+08      -     -    0s
     0     0 8.0000e+08    0   72          - 8.0000e+08      -     -    0s
     0     0 8.0000e+08    0   73          - 8.0000e+08      -     -    0s
     0     0 8.0000e+08    0   73          - 8.0000e+08      -     -    0s
     0     2 8.0000e+08    0   73          - 8.0000e+08      -     -    0s
*  583   941             139    2.500020e+09 8.0000e+08  68.0%   4.4    0s
* 2932  2029             170    2.460023e+09 8.0000e+08  67.5%   3.9    0s
* 2936  1968             170    2.460023e+09 8.0000e+08  67.5%   3.9    0s
* 3232  2188             179    2.166690e+09 8.0000e+08  63.1%   3.9    0s
* 3233  2126             176    2.100023e+09 8.0000e+08  61.9%   3.9    0s
* 3558  2468             154    2.100020e+09 8.0000e+08  61.9%   3.8    0s
* 3665  2324             170    2.000019e+09 8.0000e+08  60.0%   3.8    0s
* 4310  2798             131    2.000017e+09 8.0000e+08  60.0%   3.6    0s
* 4455  2766             133    1.966686e+09 8.0000e+08  59.3%   3.6    0s
* 4456  2753             133    1.950020e+09 8.0000e+08  59.0%   3.6    0s
* 4463  2753             133    1.950019e+09 8.0000e+08  59.0%   3.6    0s
* 5261  3107             154    1.933353e+09 8.0000e+08  58.6%   3.5    0s
* 5271  3107             153    1.933353e+09 8.0000e+08  58.6%   3.5    0s
* 5274  3107             153    1.933353e+09 8.0000e+08  58.6%   3.5    0s
* 5425  3058             146    1.900018e+09 8.0000e+08  57.9%   3.5    0s
* 5426  2985             146    1.883351e+09 8.0000e+08  57.5%   3.5    0s
* 6035  4110             107    1.875017e+09 8.0000e+08  57.3%   3.4    0s
* 6366  4108             114    1.866684e+09 8.0000e+08  57.1%   3.4    0s
* 9543  6042             120    1.833349e+09 8.0000e+08  56.4%   3.2    0s
*11791  7395              96    1.814304e+09 8.0000e+08  55.9%   3.2    0s
*13119  8377              98    1.800018e+09 8.0000e+08  55.6%   3.2    0s
*13774  9251             115    1.800017e+09 8.0000e+08  55.6%   3.2    0s
*14405  9243             109    1.800017e+09 8.0000e+08  55.6%   3.2    0s
*14625  9322             118    1.800017e+09 8.0000e+08  55.6%   3.2    0s
*16849 14469             111    1.800016e+09 8.0000e+08  55.6%   3.3    0s
*23394 15536             132    1.800016e+09 8.0000e+08  55.6%   3.2    0s
 30490 19591 1.0000e+09   73  117 1.8000e+09 8.4648e+08  53.0%   3.4    5s
H30534 18639                    1.800003e+09 8.4749e+08  52.9%   3.5    6s
H30557 17722                    1.777795e+09 8.4782e+08  52.3%   3.5    6s
H30732 16951                    1.762519e+09 8.9159e+08  49.4%   3.7    9s
 30751 16963 1.3000e+09   72   96 1.7625e+09 8.9159e+08  49.4%   3.6   10s
H30811 16153                    1.758351e+09 8.9397e+08  49.2%   3.7   11s
H30811 15345                    1.758350e+09 8.9397e+08  49.2%   3.7   11s
H30811 14576                    1.737517e+09 8.9397e+08  48.5%   3.7   11s
H30811 13847                    1.737517e+09 8.9397e+08  48.5%   3.7   11s
*35315 15166             325    1.733351e+09 9.0001e+08  48.1%   4.2   13s
*39887 16259             337    1.733351e+09 9.0001e+08  48.1%   4.2   13s
*42411 16350             323    1.700015e+09 9.0001e+08  47.1%   4.2   13s
*57811 21670             290    1.700014e+09 9.0001e+08  47.1%   4.4   14s
 74620 29890 infeasible  258      1.7000e+09 9.0001e+08  47.1%   4.6   15s
*96994 40641             324    1.681833e+09 9.0001e+08  46.5%   4.7   15s
*111550 45384             296    1.600015e+09 9.0001e+08  43.8%   4.8   16s
*112368 45851             295    1.600014e+09 9.0001e+08  43.8%   4.8   16s
*136999 58760             270    1.600013e+09 9.0001e+08  43.8%   5.0   17s
 191767 86708 1.5000e+09  259   37 1.6000e+09 9.0001e+08  43.8%   5.2   20s
 304661 137475 1.5833e+09  266   16 1.6000e+09 9.5001e+08  40.6%   5.5   25s
*312562 124193             282    1.587514e+09 9.5001e+08  40.2%   5.5   25s
*312563 124114             282    1.583347e+09 9.5001e+08  40.0%   5.5   25s
*314972 124785             298    1.575016e+09 9.5001e+08  39.7%   5.5   25s
*324627 128729             310    1.575016e+09 9.7492e+08  38.1%   5.5   26s
*324786 128198             298    1.569247e+09 9.7501e+08  37.9%   5.5   26s
*327564 124921             258    1.550014e+09 9.7501e+08  37.1%   5.5   26s
*327571 124920             259    1.550014e+09 9.7501e+08  37.1%   5.5   26s
 413948 162617 1.5000e+09  267   47 1.5500e+09 1.0000e+09  35.5%   5.5   30s
*523594 205944             269    1.550014e+09 1.0000e+09  35.5%   5.5   34s
 524310 206011 1.2000e+09  251   48 1.5500e+09 1.0000e+09  35.5%   5.5   35s
*552061 210649             298    1.542873e+09 1.0000e+09  35.2%   5.5   36s
*552067 205071             300    1.500016e+09 1.0000e+09  33.3%   5.5   36s
*581678 215520             285    1.500015e+09 1.0000e+09  33.3%   5.5   37s
*591215 215399             270    1.500013e+09 1.0000e+09  33.3%   5.5   38s
 629572 228659 infeasible  266      1.5000e+09 1.0000e+09  33.3%   5.5   40s
*701027 191740             270    1.460014e+09 1.0000e+09  31.5%   5.5   43s
 730678 197166 infeasible  246      1.4600e+09 1.0000e+09  31.5%   5.5   45s
 827459 208939 infeasible  251      1.4600e+09 1.0000e+09  31.5%   5.6   50s
*869707 193860             286    1.400013e+09 1.0000e+09  28.6%   5.6   52s
 913815 192401 infeasible  259      1.4000e+09 1.1000e+09  21.4%   5.7   55s
*945950 190743             285    1.400013e+09 1.1000e+09  21.4%   5.7   57s
 995771 198482 infeasible  249      1.4000e+09 1.1000e+09  21.4%   5.8   60s
*1026559 157244             284    1.375015e+09 1.1000e+09  20.0%   5.8   61s
 1082420 132774 infeasible  241      1.3750e+09 1.1667e+09  15.2%   5.8   65s
 1163765 119710 infeasible  255      1.3750e+09 1.2000e+09  12.7%   5.8   70s
*1205796 104294             281    1.350013e+09 1.2000e+09  11.1%   5.8   72s
*1227522 87843             285    1.320013e+09 1.2000e+09  9.09%   5.8   73s
*1239795  9687             278    1.200013e+09 1.2000e+09  0.00%   5.8   74s

Cutting planes:
  Gomory: 7
  Cover: 2
  Implied bound: 4
  Projected implied bound: 2
  MIR: 26
  Flow cover: 15
  RLT: 1
  Relax-and-lift: 14

Explored 1241203 nodes (7156424 simplex iterations) in 74.79 seconds
Thread count was 8 (of 8 available processors)

Solution count 10: 1.20001e+09 1.32001e+09 1.35001e+09 ... 1.50002e+09

Optimal solution found (tolerance 1.00e-04)
Best objective 1.200012600000e+09, best bound 1.200008851661e+09, gap 0.0003%
